n_res = 4;
rc = [ 23, 21, 18, 17 ];
n_tasks = 30;
d = [ 8, 5, 9, 8, 2, 4, 1, 4, 6, 8, 1, 8, 1, 10, 4, 7, 3, 7, 4, 8, 1, 5, 9, 5, 2, 3, 2, 5, 10, 1 ];
rr = [| 0, 6, 7, 10, 10, 3, 4, 1, 10, 10, 8, 2, 1, 7, 0, 7, 6, 3, 7, 9, 0, 1, 0, 2, 8, 0, 0, 6, 7, 0
      | 7, 9, 10, 0, 4, 3, 5, 0, 8, 3, 0, 10, 5, 1, 9, 3, 8, 7, 5, 7, 8, 5, 4, 3, 2, 0, 0, 3, 2, 5
      | 3, 7, 2, 0, 6, 3, 4, 8, 0, 7, 1, 7, 1, 6, 1, 0, 3, 7, 1, 3, 1, 0, 6, 0, 10, 6, 2, 9, 0, 0
      | 0, 0, 0, 7, 6, 3, 8, 0, 4, 0, 4, 1, 0, 8, 4, 0, 8, 10, 4, 2, 8, 0, 3, 8, 7, 0, 4, 0, 1, 3 |];
suc = [ { 17, 19, 24 },
       { 4, 6, 26 },
       { 6, 12, 30 },
       { 5, 8 },
       { 7, 10, 11 },
       { 27 },
       { 9 },
       { 18, 20 },
       { 12, 13, 15 },
       { 15, 16, 25 },
       { 14 },
       { 17, 18, 20 },
       { 18, 27 },
       { 15, 16, 23 },
       { 17, 28 },
       { 19, 29, 30 },
       { 29 },
       { 19, 22 },
       { 28 },
       { 21, 22 },
       { 23, 27 },
       { 23 },
       { 24 },
       { 25 },
       { 28 },
       { 30 },
       { 29 },
       {  },
       {  },
       {  } ];
